
Log started (V12.8.0.0) Mon Jul 16 17:57:40 2018


Selected objective sense:  MINIMIZE
Selected objective  name:  OBJ
Selected RHS        name:  rhs
Selected bound      name:  BOUND

Problem 'DCAP_3_3_3_10.mps' read.
Read time = 0.00 sec. (0.09 ticks)
Found incumbent of value 6818.296023 after 0.00 sec. (0.02 ticks)
Tried aggregator 1 time.
MIP Presolve eliminated 10 rows and 40 columns.
Reduced MIP has 179 rows, 338 columns, and 758 nonzeros.
Reduced MIP has 329 binaries, 0 generals, 0 SOSs, and 0 indicators.
Presolve time = 0.00 sec. (0.49 ticks)
Probing time = 0.00 sec. (0.25 ticks)
Tried aggregator 1 time.
Reduced MIP has 179 rows, 338 columns, and 758 nonzeros.
Reduced MIP has 329 binaries, 0 generals, 0 SOSs, and 0 indicators.
Presolve time = 0.00 sec. (0.56 ticks)
Probing time = 0.00 sec. (0.25 ticks)
Clique table members: 179.
MIP emphasis: balance optimality and feasibility.
MIP search method: dynamic search.
Parallel mode: deterministic, using up to 8 threads.
Root relaxation solution time = 0.00 sec. (0.61 ticks)

        Nodes                                         Cuts/
   Node  Left     Objective  IInf  Best Integer    Best Bound    ItCnt     Gap

*     0+    0                         6818.2960      722.2379            89.41%
*     0+    0                         5557.9006      722.2379            87.01%
*     0+    0                         1055.8156      722.2379            31.59%
      0     0      915.8903    76     1055.8156      915.8903       75   13.25%
      0     0      971.2814    25     1055.8156     Cuts: 121      203    8.01%
*     0+    0                         1002.9495      971.2814             3.16%
      0     0      976.4068    30     1002.9495      Cuts: 27      248    2.65%
*     0+    0                          979.0404      976.4068             0.27%
      0     0      976.6185    90      979.0404      Cuts: 19      271    0.25%
*     0+    0                          977.7296      976.6185             0.11%
      0     0      976.6996    24      977.7296      Cuts: 52      288    0.11%
*     0+    0                          977.5872      976.6996             0.09%
      0     0      976.7671    38      977.5872      Cuts: 14      298    0.08%
*     0+    0                          977.4702      976.7671             0.07%
*     0+    0                          976.9677      976.7671             0.02%
*     0+    0                          976.8356      976.7671             0.01%

Clique cuts applied:  9
Cover cuts applied:  34
Flow cuts applied:  20
Mixed integer rounding cuts applied:  29
Zero-half cuts applied:  11
Lift and project cuts applied:  4
Gomory fractional cuts applied:  9

Root node processing (before b&c):
  Real time             =    0.08 sec. (15.67 ticks)
Parallel b&c, 8 threads:
  Real time             =    0.00 sec. (0.00 ticks)
  Sync time (average)   =    0.00 sec.
  Wait time (average)   =    0.00 sec.
                          ------------
Total (root+branch&cut) =    0.08 sec. (15.67 ticks)

Solution pool: 10 solutions saved.

MIP - Integer optimal, tolerance (0.0001/1e-06):  Objective =  9.7683560627e+02
Current MIP best bound =  9.7676705127e+02 (gap = 0.068555, 0.01%)
Solution time =    0.08 sec.  Iterations = 298  Nodes = 0 (1)
Deterministic time = 15.67 ticks  (194.70 ticks/sec)

